17	4
29	34	33	35	
0	0	0	0	0	3	2	3	4	
9	4	6	9	8	3	16	17	17	
10	2	3	6	10	3	5	7	10	
6	3	7	8	8	3	6	17	17	
6	5	1	7	4	3	8	12	13	
200	7	10	6	7	3	15	17	17	
75	10	10	9	4	2	9	17	
250	2	4	7	3	3	17	17	17	
125	8	6	3	1	3	11	14	17	
200	6	10	10	4	1	16	
250	2	4	2	8	1	17	
125	1	6	6	7	1	17	
10	4	7	10	8	1	17	
5	5	1	1	9	2	16	17	
10	10	6	1	7	1	17	
6	1	4	6	6	1	17	
0	0	0	0	0	0	
